p edge 60 364
e 1 6
e 1 8
e 1 9
e 1 11
e 1 12
e 1 13
e 1 19
e 1 20
e 1 30
e 1 33
e 1 39
e 1 48
e 1 52
e 1 56
e 1 58
e 2 11
e 2 22
e 2 46
e 2 52
e 3 8
e 3 12
e 3 16
e 3 21
e 3 26
e 3 28
e 3 40
e 3 44
e 3 45
e 3 56
e 3 58
e 3 59
e 4 6
e 4 8
e 4 21
e 4 22
e 4 26
e 4 30
e 4 31
e 4 44
e 4 56
e 4 57
e 4 60
e 5 6
e 5 8
e 5 13
e 5 15
e 5 16
e 5 24
e 5 25
e 5 26
e 5 28
e 5 32
e 5 44
e 5 45
e 5 46
e 5 48
e 5 50
e 5 56
e 5 60
e 6 10
e 6 13
e 6 19
e 6 30
e 6 33
e 6 34
e 6 38
e 6 39
e 6 40
e 6 47
e 6 55
e 6 56
e 6 57
e 7 12
e 7 13
e 7 17
e 7 24
e 7 25
e 7 26
e 7 32
e 7 36
e 7 43
e 7 46
e 7 49
e 7 50
e 7 53
e 8 21
e 8 26
e 8 36
e 8 48
e 8 51
e 8 55
e 8 58
e 9 11
e 9 13
e 9 21
e 9 30
e 9 36
e 9 37
e 9 42
e 9 43
e 9 44
e 9 45
e 9 50
e 9 55
e 9 56
e 10 11
e 10 17
e 10 20
e 10 23
e 10 24
e 10 35
e 10 41
e 10 46
e 10 57
e 11 13
e 11 18
e 11 23
e 11 24
e 11 27
e 11 30
e 11 31
e 11 32
e 11 35
e 11 40
e 11 52
e 11 55
e 11 59
e 12 14
e 12 23
e 12 31
e 12 36
e 12 43
e 12 51
e 12 52
e 12 54
e 12 57
e 13 16
e 13 20
e 13 27
e 13 33
e 13 36
e 13 43
e 13 44
e 13 47
e 13 57
e 14 15
e 14 16
e 14 24
e 14 28
e 14 30
e 14 31
e 14 37
e 14 43
e 14 54
e 14 57
e 14 58
e 15 17
e 15 18
e 15 19
e 15 38
e 15 43
e 15 57
e 15 60
e 16 17
e 16 31
e 16 41
e 16 42
e 16 48
e 16 51
e 16 55
e 17 21
e 17 38
e 17 40
e 17 45
e 17 47
e 17 49
e 17 52
e 17 54
e 17 58
e 18 22
e 18 26
e 18 31
e 18 35
e 18 38
e 18 43
e 18 44
e 18 54
e 18 58
e 19 21
e 19 22
e 19 23
e 19 25
e 19 28
e 19 33
e 19 34
e 19 45
e 19 47
e 19 49
e 19 51
e 19 58
e 20 22
e 20 28
e 20 41
e 20 46
e 20 59
e 21 25
e 21 31
e 21 33
e 21 34
e 21 36
e 21 42
e 21 43
e 21 44
e 21 47
e 21 53
e 21 54
e 21 56
e 22 27
e 22 29
e 22 35
e 22 38
e 22 39
e 22 50
e 22 53
e 22 54
e 22 57
e 22 58
e 23 30
e 23 52
e 23 56
e 23 59
e 23 60
e 24 34
e 24 35
e 24 36
e 24 40
e 24 45
e 24 46
e 24 47
e 24 48
e 24 49
e 25 26
e 25 28
e 25 32
e 25 34
e 25 42
e 25 45
e 25 46
e 25 47
e 25 52
e 26 28
e 26 32
e 26 40
e 26 48
e 26 54
e 27 29
e 27 37
e 27 38
e 27 45
e 27 46
e 27 54
e 27 55
e 28 40
e 28 46
e 28 49
e 28 57
e 29 32
e 29 40
e 29 41
e 29 43
e 29 47
e 29 48
e 29 55
e 29 57
e 30 40
e 30 48
e 30 53
e 30 54
e 30 60
e 31 33
e 31 34
e 31 40
e 31 44
e 31 46
e 31 51
e 31 60
e 32 45
e 32 49
e 32 50
e 32 54
e 32 55
e 33 38
e 33 39
e 33 41
e 33 48
e 33 50
e 33 51
e 33 54
e 33 60
e 34 37
e 35 41
e 35 46
e 35 47
e 35 50
e 35 51
e 35 57
e 36 41
e 36 58
e 36 59
e 37 40
e 37 41
e 37 43
e 37 54
e 37 58
e 37 60
e 38 43
e 38 46
e 38 58
e 39 51
e 39 58
e 39 59
e 40 41
e 40 50
e 41 47
e 41 60
e 42 43
e 42 57
e 42 58
e 42 60
e 43 47
e 43 56
e 43 57
e 43 59
e 44 45
e 44 48
e 44 51
e 45 48
e 45 56
e 45 59
e 46 52
e 46 54
e 46 60
e 47 58
e 47 59
e 47 60
e 49 52
e 49 56
e 49 57
e 49 60
e 50 54
e 51 54
e 51 60
e 52 53
e 52 55
e 52 60
e 53 58
e 53 60
e 54 57
e 54 58
e 54 60
e 56 57
e 56 60
e 57 60
e 58 60